p cnf 5 25
-4 -3 1 -5 0
4 -4 0
2 5 0
3 0
-5 -4 -5 4 0
-3 -3 0
-4 -3 0
-2 -5 -5 1 0
-5 0
-1 5 0
3 1 -5 0
-4 -1 0
2 4 -5 0
-1 5 5 0
-2 0
3 2 0
4 5 0
3 5 1 0
2 4 -4 -1 0
-5 -3 -1 0
-5 4 0
1 4 0
-4 -3 0
3 -2 0
5 -4 -3 0